RT is False
Default write of storage_offers_DA.csv just to have a file (but constraint should be inactive)
Reading model...
...model read.
creating competitive generators file...
...competitive generators recorded.
Loading data...
.. day-ahead data with real-time VRE data read.
Compiling instance...
...instance created.
Creating Offer Mitigation (model will solve as dispatch if TRUE)...
Solving...

Welcome to IBM(R) ILOG(R) CPLEX(R) Interactive Optimizer 12.9.0.0
  with Simplex, Mixed Integer & Barrier Optimizers
5725-A06 5725-A29 5724-Y48 5724-Y49 5724-Y54 5724-Y55 5655-Y21
Copyright IBM Corp. 1988, 2019.  All Rights Reserved.

Type 'help' for a list of available commands.
Type 'help' followed by a command name for more
information on commands.

CPLEX> Logfile 'cplex.log' closed.
Logfile 'C:\Users\llavin\Desktop\test919\logs\tmpuarjbay_.cplex.log' open.
CPLEX> New value for parallel optimization mode: -1
CPLEX> New value for mixed integer optimality gap tolerance: 0.01
CPLEX> New value for integrality tolerance: 1e-09
CPLEX> New value for feasibility tolerance: 0.01
CPLEX> New value for deterministic time limit in ticks: 75000
CPLEX> Problem 'C:\Users\llavin\Desktop\test919\logs\tmp7tsidrhm.pyomo.lp' read.
Read time = 0.05 sec. (3.04 ticks)
CPLEX> Problem name         : C:\Users\llavin\Desktop\test919\logs\tmp7tsidrhm.pyomo.lp
Objective sense      : Minimize
Variables            :   26081  [Nneg: 1,  Box: 21616,  Free: 4464]
Objective nonzeros   :    2496
Linear constraints   :   27515  [Less: 14006,  Greater: 4416,  Equal: 9093]
  Nonzeros           :   89219
  RHS nonzeros       :   12269

Variables            : Min LB: -5000.000        Max UB: 1000000.       
Objective nonzeros   : Min   : 15.73158         Max   : 124.0997       
Linear constraints   :
  Nonzeros           : Min   : 0.8500000        Max   : 3000.000       
  RHS nonzeros       : Min   : 0.05833333       Max   : 5000.000       
CPLEX> CPXPARAM_Parallel                                -1
CPXPARAM_Simplex_Tolerances_Feasibility          0.01
CPXPARAM_DetTimeLimit                            75000
CPXPARAM_MIP_Tolerances_MIPGap                   0.01
CPXPARAM_MIP_Tolerances_Integrality              1.0000000000000001e-09
Parallel mode: opportunistic, using up to 32 threads for concurrent optimization.
Tried aggregator 1 time.
LP Presolve eliminated 21377 rows and 15484 columns.
Aggregator did 741 substitutions.
Reduced LP has 5397 rows, 9856 columns, and 31806 nonzeros.
Presolve time = 0.05 sec. (30.20 ticks)
Symmetry aggregator did 5565 additional substitutions.

Iteration log . . .
Iteration:     1   Dual objective     =             0.000000
Perturbation started.
Iteration:   101   Dual objective     =             0.000000
Iteration:   321   Dual objective     =             1.195941
Iteration:   610   Dual objective     =             1.877273
Iteration:   867   Dual objective     =             2.025189
Iteration:  1079   Dual objective     =             2.137958
Iteration:  1356   Dual objective     =             2.185011
Iteration:  1610   Dual objective     =             2.213448
Iteration:  1834   Dual objective     =             2.236399
Iteration:  2046   Dual objective     =             2.265066
Iteration:  2233   Dual objective     =             2.284396
Iteration:  2482   Dual objective     =         57931.058766
Iteration:  2801   Dual objective     =         63040.587052
Removing perturbation.
Dual superbasis not built.
Using devex.

Primal simplex solved model.


Primal simplex - Optimal:  Objective =  6.4140257062e+04
Solution time =    0.17 sec.  Iterations = 1622 (1185)
Deterministic time = 79.65 ticks  (463.11 ticks/sec)

CPLEX> Solution written to file 'C:\Users\llavin\Desktop\test919\logs\tmpcujeo_3q.cplex.sol'.
CPLEX> Exporting results... 
...storage offer mitigation file created
Converting model to MPEC...
...converted
NOTE: initial MIP solve with only storage competitive to get feasible solution
Solving...

Welcome to IBM(R) ILOG(R) CPLEX(R) Interactive Optimizer 12.9.0.0
  with Simplex, Mixed Integer & Barrier Optimizers
5725-A06 5725-A29 5724-Y48 5724-Y49 5724-Y54 5724-Y55 5655-Y21
Copyright IBM Corp. 1988, 2019.  All Rights Reserved.

Type 'help' for a list of available commands.
Type 'help' followed by a command name for more
information on commands.

CPLEX> Logfile 'cplex.log' closed.
Logfile 'C:\Users\llavin\Desktop\test919\logs\tmpbpumktde.cplex.log' open.
CPLEX> New value for parallel optimization mode: -1
CPLEX> New value for mixed integer optimality gap tolerance: 0.01
CPLEX> New value for integrality tolerance: 1e-09
CPLEX> New value for feasibility tolerance: 0.01
CPLEX> New value for deterministic time limit in ticks: 75000
CPLEX> Problem 'C:\Users\llavin\Desktop\test919\logs\tmpbmvqbly6.pyomo.lp' read.
Read time = 0.22 sec. (14.78 ticks)
CPLEX> Problem name         : C:\Users\llavin\Desktop\test919\logs\tmpbmvqbly6.pyomo.lp
Objective sense      : Maximize
Variables            :   53805  [Nneg: 1,  Box: 22000,  Free: 4464,
                                 Binary: 27340]
Objective nonzeros   :    9027
Linear constraints   :  123205  [Less: 41346,  Greater: 59096,  Equal: 22763]
  Nonzeros           :  291751
  RHS nonzeros       :   67415

Variables            : Min LB: -5000.000        Max UB: 1000000.       
Objective nonzeros   : Min   : 0.05833333       Max   : 2500.000       
Linear constraints   :
  Nonzeros           : Min   : 0.05833333       Max   : 1000000.       
  RHS nonzeros       : Min   : 0.05833333       Max   : 1000000.       
CPLEX> CPXPARAM_Parallel                                -1
CPXPARAM_Simplex_Tolerances_Feasibility          0.01
CPXPARAM_DetTimeLimit                            75000
CPXPARAM_MIP_Tolerances_MIPGap                   0.01
CPXPARAM_MIP_Tolerances_Integrality              1.0000000000000001e-09
Tried aggregator 3 times.
MIP Presolve eliminated 88636 rows and 18962 columns.
MIP Presolve added 3376 rows and 0 columns.
MIP Presolve modified 24827 coefficients.
Aggregator did 12978 substitutions.
Reduced MIP has 24967 rows, 21311 columns, and 71223 nonzeros.
Reduced MIP has 8421 binaries, 0 generals, 0 SOSs, and 0 indicators.
Presolve time = 0.28 sec. (173.50 ticks)
Probing fixed 378 vars, tightened 2869 bounds.
Probing time = 1.19 sec. (880.65 ticks)
Tried aggregator 2 times.
MIP Presolve eliminated 854 rows and 757 columns.
MIP Presolve modified 2211 coefficients.
Aggregator did 42 substitutions.
Reduced MIP has 24071 rows, 20512 columns, and 68627 nonzeros.
Reduced MIP has 8043 binaries, 0 generals, 0 SOSs, and 0 indicators.
Presolve time = 0.11 sec. (68.45 ticks)
Probing fixed 0 vars, tightened 1 bounds.
Probing time = 0.05 sec. (20.21 ticks)
Clique table members: 6362.
MIP emphasis: balance optimality and feasibility.
MIP search method: dynamic search.
Parallel mode: opportunistic, using up to 32 threads.
Root relaxation solution time = 0.45 sec. (535.34 ticks)

        Nodes                                         Cuts/
   Node  Left     Objective  IInf  Best Integer    Best Bound    ItCnt     Gap

      0     0        0.0000   697                      0.0000     6411         
*     0     0      integral     0        0.0000        0.0000     6419    0.00%
Elapsed time = 3.94 sec. (2937.39 ticks, tree = 0.01 MB, solutions = 1)

Root node processing (before b&c):
  Real time             =    3.95 sec. (2939.34 ticks)
Parallel b&c, 32 threads:
  Real time             =    0.00 sec. (0.00 ticks)
  Sync time (average)   =    0.00 sec.
  Wait time (average)   =    0.00 sec.
                          ------------
Total (root+branch&cut) =    3.95 sec. (2939.34 ticks)

Solution pool: 1 solution saved.

MIP - Integer optimal solution:  Objective =  5.8207660913e-10
Solution time =    3.97 sec.  Iterations = 6419  Nodes = 0
Deterministic time = 2939.49 ticks  (740.61 ticks/sec)

CPLEX> Incumbent solution written to file 'C:\Users\llavin\Desktop\test919\logs\tmpgxsj2prp.cplex.sol'.
CPLEX> NOTE: no warmstart specified for MIP iteration, default behavior is true
NOTE: resolving with all competitive generators using storage-only solution to warmstart
Solving...

Welcome to IBM(R) ILOG(R) CPLEX(R) Interactive Optimizer 12.9.0.0
  with Simplex, Mixed Integer & Barrier Optimizers
5725-A06 5725-A29 5724-Y48 5724-Y49 5724-Y54 5724-Y55 5655-Y21
Copyright IBM Corp. 1988, 2019.  All Rights Reserved.

Type 'help' for a list of available commands.
Type 'help' followed by a command name for more
information on commands.

CPLEX> Logfile 'cplex.log' closed.
Logfile 'C:\Users\llavin\Desktop\test919\logs\tmpxz_veyge.cplex.log' open.
CPLEX> New value for parallel optimization mode: -1
CPLEX> New value for mixed integer optimality gap tolerance: 0.01
CPLEX> New value for integrality tolerance: 1e-09
CPLEX> New value for feasibility tolerance: 0.01
CPLEX> New value for deterministic time limit in ticks: 75000
CPLEX> Problem 'C:\Users\llavin\Desktop\test919\logs\tmpgfhrh_v_.pyomo.lp' read.
Read time = 0.25 sec. (14.81 ticks)
CPLEX> MIP start file 'C:\Users\llavin\Desktop\test919\logs\tmp3c2oxe06.cplex.mst' read.
CPLEX> Problem name         : C:\Users\llavin\Desktop\test919\logs\tmpgfhrh_v_.pyomo.lp
Objective sense      : Maximize
Variables            :   54525  [Nneg: 1,  Box: 22720,  Free: 4464,
                                 Binary: 27340]
Objective nonzeros   :    9723
Linear constraints   :  123205  [Less: 41346,  Greater: 59096,  Equal: 22763]
  Nonzeros           :  291751
  RHS nonzeros       :   67415

Variables            : Min LB: -5000.000        Max UB: 1000000.       
Objective nonzeros   : Min   : 0.05833333       Max   : 2500.000       
Linear constraints   :
  Nonzeros           : Min   : 0.05833333       Max   : 1000000.       
  RHS nonzeros       : Min   : 0.05833333       Max   : 1000000.       
CPLEX> CPXPARAM_Parallel                                -1
CPXPARAM_Simplex_Tolerances_Feasibility          0.01
CPXPARAM_DetTimeLimit                            75000
CPXPARAM_MIP_Tolerances_MIPGap                   0.01
CPXPARAM_MIP_Tolerances_Integrality              1.0000000000000001e-09
Warning:  No solution found from 1 MIP starts.
Retaining values of one MIP start for possible repair.
Tried aggregator 3 times.
MIP Presolve eliminated 88636 rows and 19682 columns.
MIP Presolve added 3376 rows and 0 columns.
MIP Presolve modified 24827 coefficients.
Aggregator did 12978 substitutions.
Reduced MIP has 24967 rows, 21311 columns, and 71223 nonzeros.
Reduced MIP has 8421 binaries, 0 generals, 0 SOSs, and 0 indicators.
Presolve time = 0.28 sec. (173.86 ticks)
Probing fixed 378 vars, tightened 2869 bounds.
Probing time = 1.20 sec. (880.65 ticks)
Tried aggregator 2 times.
MIP Presolve eliminated 854 rows and 757 columns.
MIP Presolve modified 2211 coefficients.
Aggregator did 42 substitutions.
Reduced MIP has 24071 rows, 20512 columns, and 68627 nonzeros.
Reduced MIP has 8043 binaries, 0 generals, 0 SOSs, and 0 indicators.
Presolve time = 0.09 sec. (68.46 ticks)
Probing fixed 0 vars, tightened 1 bounds.
Probing time = 0.05 sec. (20.21 ticks)
Clique table members: 6362.
MIP emphasis: balance optimality and feasibility.
MIP search method: dynamic search.
Parallel mode: opportunistic, using up to 32 threads.
Root relaxation solution time = 0.36 sec. (274.05 ticks)

        Nodes                                         Cuts/
   Node  Left     Objective  IInf  Best Integer    Best Bound    ItCnt     Gap

      0     0   140621.3648  1720                 140621.3648     6105         
      0     0   138461.8266   629                   Cuts: 578     6411         
      0     0   138051.3089   537                   Cuts: 201     6539         
      0     0   137705.1729   515                   Cuts: 102     6595         
      0     0   137634.4881   472                    Cuts: 90     6641         
      0     0   137626.1223   454                    Cuts: 68     6673         
      0     0   137626.1223   436                    Cuts: 50     6690         
      0     0   137626.1223   424                    Cuts: 41     6701         
      0     0   137626.1223   419                    Cuts: 29     6706         
      0     0   132572.4609   383                    Cuts: 52     6851         
      0     0   131105.0459   374                    Cuts: 74     6923         
      0     0   131015.4782   374                    Cuts: 58     6950         
      0     0   131015.4782   372                    Cuts: 44     6964         
Repair heuristic found nothing.
      0    11    53326.7262   361                    Cuts: 16     7447         
Elapsed time = 12.88 sec. (7035.85 ticks, tree = 0.02 MB, solutions = 0)
    507    34    infeasible                        42812.2416    10142         
   1052   110    22106.1756   332                  42812.2416    17345         
   1739   143     5122.0869   295                  42812.2416    27110         
   2465   606     9220.6310   269                  42812.2416    45141         
   3242   477     5048.9460   302                  42812.2416    44293         
   4239  1018    13724.7606   247                  42812.2416    48860         
   5731  1161    11974.6903   250                  42812.2416    49113         
   7157  3669    15186.7986   281                  42812.2416    56030         
*  7357+ 2737                         7833.4713    42812.2416           446.53%

Clique cuts applied:  2
Cover cuts applied:  3
Implied bound cuts applied:  10
Flow cuts applied:  439
Mixed integer rounding cuts applied:  32
Gomory fractional cuts applied:  53

Root node processing (before b&c):
  Real time             =   10.61 sec. (7001.63 ticks)
Parallel b&c, 32 threads:
  Real time             =   18.91 sec. (4462.65 ticks)
  Sync time (average)   =    1.62 sec.
  Wait time (average)   =    0.00 sec.
                          ------------
Total (root+branch&cut) =   29.52 sec. (11464.28 ticks)

Solution pool: 2 solutions saved.

MIP - Integer optimal solution:  Objective =  7.8334712794e+03
Solution time =   29.55 sec.  Iterations = 62381  Nodes = 9671
Deterministic time = 11464.43 ticks  (388.01 ticks/sec)

CPLEX> Incumbent solution written to file 'C:\Users\llavin\Desktop\test919\logs\tmpm2j787tp.cplex.sol'.
CPLEX> Exporting results... 
